outputs/r111.txt.out
filename: R111
Vehicles: 25, Capacity: 200
Total customers : 101
No of routes: 24
Route #1: 28 53 58
Route #2: 13 95 94
Route #3: 97 87 57 2
Route #4: 15 43
Route #5: 42 92 59 96 99 5 60
Route #6: 52 46 8 83 18
Route #7: 45 82 48 47 36 49
Route #8: 64 7
Route #9: 88 19 11 62 10 63 90 32
Route #10: 31 70
Route #11: 30 20 66
Route #12: 84 17 91 85 93
Route #13: 61 16 44 14 38 86 100 37 98
Route #14: 6 89
Route #15: 40 26 12 80 68 77
Route #16: 76 50 1
Route #17: 69 34 78 79 3
Route #18: 33 81 9 71 51
Route #19: 65 35
Route #20: 29 24 54 55 25 21
Route #21: 73 74 72
Route #22: 41 22 75 56
Route #23: 23 67 39 4
Route #24: 27
Cost 1646
